sing20150620.12
TTAA  70121 48698
99005 31459 20004 00062 30057 18004 92754 24248 18514
85490 20057 23012 70143 12865 28524 50587 06545 23008
40758 15136 11026 30969 29359 09041 25097 39356 07052
20246 51356 05052 15426 67149 05051 10664 72350 17013
88120 76356 07070
77127 06578 43261=
TTCC  70127 48698
70868 81538 14502
88999
77999=
TTDD  7012/ 48698
11977 73149 22968 73549 33903 76550 44873 77975 55829
78375 66731 81974 77714 81350 88702 81526 99694 80961
11677 78303
21212 11976 17514 22934 16012 33913 16512 44893 16010
55873 16510 66855 18009 77819 25012 88802 26509 99784
27012 11767 27509 22737 24007 33725 22503 44713 20502
55692 09009 66677 09016=
